(set-info :total-time 1.8)
; Start decls (33)
(declare-fun b101 () (_ FloatingPoint 11 53))
(declare-fun b11 () (_ FloatingPoint 8 24))
(declare-fun b13 () (_ FloatingPoint 8 24))
(declare-fun b16 () (_ FloatingPoint 8 24))
(declare-fun b169 () (_ FloatingPoint 8 24))
(declare-fun b172 () (_ FloatingPoint 8 24))
(declare-fun b19 () (_ FloatingPoint 8 24))
(declare-fun b22 () (_ FloatingPoint 8 24))
(declare-fun b25 () (_ FloatingPoint 8 24))
(declare-fun b28 () (_ FloatingPoint 8 24))
(declare-fun b31 () (_ FloatingPoint 8 24))
(declare-fun b34 () (_ FloatingPoint 8 24))
(declare-fun b37 () (_ FloatingPoint 8 24))
(declare-fun b40 () (_ FloatingPoint 8 24))
(declare-fun b43 () (_ FloatingPoint 8 24))
(declare-fun b46 () (_ FloatingPoint 8 24))
(declare-fun b49 () (_ FloatingPoint 8 24))
(declare-fun b52 () (_ FloatingPoint 8 24))
(declare-fun b55 () (_ FloatingPoint 8 24))
(declare-fun b58 () (_ FloatingPoint 8 24))
(declare-fun b61 () (_ FloatingPoint 8 24))
(declare-fun b64 () (_ FloatingPoint 8 24))
(declare-fun b67 () (_ FloatingPoint 8 24))
(declare-fun b70 () (_ FloatingPoint 8 24))
(declare-fun b73 () (_ FloatingPoint 8 24))
(declare-fun b76 () (_ FloatingPoint 8 24))
(declare-fun b79 () (_ FloatingPoint 8 24))
(declare-fun b82 () (_ FloatingPoint 8 24))
(declare-fun b85 () (_ FloatingPoint 8 24))
(declare-fun b88 () (_ FloatingPoint 8 24))
(declare-fun b91 () (_ FloatingPoint 8 24))
(declare-fun b94 () (_ FloatingPoint 8 24))
(declare-fun b97 () (_ FloatingPoint 8 24))
; End decls
; Start constraints (61)
(assert (fp.lt b169 b11))
(assert (let ((a!1 (fp.mul roundNearestTiesToEven
                   (fp.mul roundNearestTiesToEven
                           (fp.mul roundNearestTiesToEven
                                   (fp.mul roundNearestTiesToEven b11 b13)
                                   b16)
                           b19)
                   b22)))
(let ((a!2 (fp.mul roundNearestTiesToEven
                   (fp.mul roundNearestTiesToEven
                           (fp.mul roundNearestTiesToEven
                                   (fp.mul roundNearestTiesToEven a!1 b25)
                                   b28)
                           b31)
                   b34)))
(let ((a!3 (fp.mul roundNearestTiesToEven
                   (fp.mul roundNearestTiesToEven
                           (fp.mul roundNearestTiesToEven
                                   (fp.mul roundNearestTiesToEven a!2 b37)
                                   b40)
                           b43)
                   b46)))
(let ((a!4 (fp.mul roundNearestTiesToEven
                   (fp.mul roundNearestTiesToEven
                           (fp.mul roundNearestTiesToEven
                                   (fp.mul roundNearestTiesToEven a!3 b49)
                                   b52)
                           b55)
                   b58)))
(let ((a!5 (fp.mul roundNearestTiesToEven
                   (fp.mul roundNearestTiesToEven
                           (fp.mul roundNearestTiesToEven
                                   (fp.mul roundNearestTiesToEven a!4 b61)
                                   b64)
                           b67)
                   b70)))
(let ((a!6 (fp.mul roundNearestTiesToEven
                   (fp.mul roundNearestTiesToEven
                           (fp.mul roundNearestTiesToEven
                                   (fp.mul roundNearestTiesToEven a!5 b73)
                                   b76)
                           b79)
                   b82)))
(let ((a!7 (fp.mul roundNearestTiesToEven
                   (fp.mul roundNearestTiesToEven
                           (fp.mul roundNearestTiesToEven
                                   (fp.mul roundNearestTiesToEven a!6 b85)
                                   b88)
                           b91)
                   b94)))
  (fp.lt b101
         ((_ to_fp 11 53)
           roundNearestTiesToEven
           (fp.mul roundNearestTiesToEven a!7 b97)))))))))))
(assert (fp.lt b11 b172))
(assert (fp.lt b169 b13))
(assert (fp.lt b13 b172))
(assert (fp.lt b169 b16))
(assert (fp.lt b16 b172))
(assert (fp.lt b169 b19))
(assert (fp.lt b19 b172))
(assert (fp.lt b169 b22))
(assert (fp.lt b22 b172))
(assert (fp.lt b169 b25))
(assert (fp.lt b25 b172))
(assert (fp.lt b169 b28))
(assert (fp.lt b28 b172))
(assert (fp.lt b169 b31))
(assert (fp.lt b31 b172))
(assert (fp.lt b169 b34))
(assert (fp.lt b34 b172))
(assert (fp.lt b169 b37))
(assert (fp.lt b37 b172))
(assert (fp.lt b169 b40))
(assert (fp.lt b40 b172))
(assert (fp.lt b169 b43))
(assert (fp.lt b43 b172))
(assert (fp.lt b169 b46))
(assert (fp.lt b46 b172))
(assert (fp.lt b169 b49))
(assert (fp.lt b49 b172))
(assert (fp.lt b169 b52))
(assert (fp.lt b52 b172))
(assert (fp.lt b169 b55))
(assert (fp.lt b55 b172))
(assert (fp.lt b169 b58))
(assert (fp.lt b58 b172))
(assert (fp.lt b169 b61))
(assert (fp.lt b61 b172))
(assert (fp.lt b169 b64))
(assert (fp.lt b64 b172))
(assert (fp.lt b169 b67))
(assert (fp.lt b67 b172))
(assert (fp.lt b169 b70))
(assert (fp.lt b70 b172))
(assert (fp.lt b169 b73))
(assert (fp.lt b73 b172))
(assert (fp.lt b169 b76))
(assert (fp.lt b76 b172))
(assert (fp.lt b169 b79))
(assert (fp.lt b79 b172))
(assert (fp.lt b169 b82))
(assert (fp.lt b82 b172))
(assert (fp.lt b169 b85))
(assert (fp.lt b85 b172))
(assert (fp.lt b169 b88))
(assert (fp.lt b88 b172))
(assert (fp.lt b169 b91))
(assert (fp.lt b91 b172))
(assert (fp.lt b169 b94))
(assert (fp.lt b94 b172))
(assert (fp.lt b169 b97))
(assert (fp.lt b97 b172))
; End constraints
(check-sat)
